\ENCODING=ISO-8859-1
\Problem name: ilog.cplex

Minimize
 obj1: s0 + s1 + s2 + s3 + s4
Subject To
 hsev#0:    h0,4  = 1
 hsev#1:    h1,4  = 1
 hsev#2:    h2,4  = 1
 hsev#3:    h3,4  = 1
 hsev#4:    h4,4  = 1
 s#5:       - s0 + h0,0  = 0
 s#6:       - s1 + h1,0  = 0
 s#7:       - s2 + h2,0  = 0
 s#8:       - s3 + h3,0  = 0
 s#9:       - s4 + h4,0  = 0
 propag#10: - h0,0 + h0,1 >= 0
 propag#11: - h0,1 + h0,2 >= 0
 propag#12: - h0,2 + h0,3 >= 0
 propag#13: h0,4 - h0,3 >= 0
 propag#14: - h1,0 + h1,1 >= 0
 propag#15: - h1,1 + h1,2 >= 0
 propag#16: - h1,2 + h1,3 >= 0
 propag#17: h1,4 - h1,3 >= 0
 propag#18: - h2,0 + h2,1 >= 0
 propag#19: - h2,1 + h2,2 >= 0
 propag#20: - h2,2 + h2,3 >= 0
 propag#21: h2,4 - h2,3 >= 0
 propag#22: - h3,0 + h3,1 >= 0
 propag#23: - h3,1 + h3,2 >= 0
 propag#24: - h3,2 + h3,3 >= 0
 propag#25: h3,4 - h3,3 >= 0
 propag#26: - h4,0 + h4,1 >= 0
 propag#27: - h4,1 + h4,2 >= 0
 propag#28: - h4,2 + h4,3 >= 0
 propag#29: h4,4 - h4,3 >= 0
 _edge#30:  - h0,0 + h0,1 >= 0
 _edge#31:  - h0,1 + h0,2 >= 0
 _edge#32:  - h0,2 + h0,3 >= 0
 _edge#33:  h0,4 - h0,3 >= 0
 _edge#34:  - h1,0 + h1,1 >= 0
 _edge#35:  - h1,1 + h1,2 >= 0
 _edge#36:  - h1,2 + h1,3 >= 0
 _edge#37:  h1,4 - h1,3 >= 0
 _edge#38:  - h2,0 + h2,1 >= 0
 _edge#39:  - h2,1 + h2,2 >= 0
 _edge#40:  - h2,2 + h2,3 >= 0
 _edge#41:  h2,4 - h2,3 >= 0
 _edge#42:  - h3,0 + h3,1 >= 0
 _edge#43:  - h3,1 + h3,2 >= 0
 _edge#44:  - h3,2 + h3,3 >= 0
 _edge#45:  h3,4 - h3,3 >= 0
 _edge#46:  - h4,0 + h4,1 >= 0
 _edge#47:  - h4,1 + h4,2 >= 0
 _edge#48:  - h4,2 + h4,3 >= 0
 _edge#49:  h4,4 - h4,3 >= 0
Bounds
 0 <= s0 <= 1
 0 <= s1 <= 1
 0 <= s2 <= 1
 0 <= s3 <= 1
 0 <= s4 <= 1
 0 <= h0,4 <= 1
 0 <= h1,4 <= 1
 0 <= h2,4 <= 1
 0 <= h3,4 <= 1
 0 <= h4,4 <= 1
 0 <= h0,0 <= 1
 0 <= h1,0 <= 1
 0 <= h2,0 <= 1
 0 <= h3,0 <= 1
 0 <= h4,0 <= 1
 0 <= h0,1 <= 1
 0 <= h0,2 <= 1
 0 <= h0,3 <= 1
 0 <= h1,1 <= 1
 0 <= h1,2 <= 1
 0 <= h1,3 <= 1
 0 <= h2,1 <= 1
 0 <= h2,2 <= 1
 0 <= h2,3 <= 1
 0 <= h3,1 <= 1
 0 <= h3,2 <= 1
 0 <= h3,3 <= 1
 0 <= h4,1 <= 1
 0 <= h4,2 <= 1
 0 <= h4,3 <= 1
Binaries
 s0  s1  s2  s3  s4  h0,4  h1,4  h2,4  h3,4  h4,4  h0,0  h1,0  h2,0  h3,0 
 h4,0  h0,1  h0,2  h0,3  h1,1  h1,2  h1,3  h2,1  h2,2  h2,3  h3,1  h3,2  h3,3 
 h4,1  h4,2  h4,3 
End
